#SOLVERNAME# PAJ_Gurobi_MOSEK_msd_nodisagg_subponly_noinit
#SOLVER# Pajarito.PajaritoSolver(3, 3600.0, 1.0e-5, true, Gurobi.GurobiSolver(nothing, Any[(:OutputFlag, 1), (:Threads, 8), (:IntFeasTol, 1.0e-9), (:FeasibilityTol, 1.0e-8), (:MIPGap, 1.0e-5)]), Pajarito.UnsetSolver(), 0, false, true, Mosek.MosekSolver(Any[(:LOG, 0), (:NUM_THREADS, 8), (:MSK_DPAR_INTPNT_CO_TOL_REL_GAP, 1.0e-10), (:MSK_DPAR_INTPNT_CO_TOL_PFEAS, 1.0e-10), (:MSK_DPAR_INTPNT_CO_TOL_DFEAS, 1.0e-10), (:MSK_DPAR_INTPNT_CO_TOL_NEAR_REL, 1000.0)]), true, true, false, false, false, false, false, false, false, false, false, false, false, false, false, true, 10.0, false, true, false, false, false, 1.0e-12, 1.0e-8, false, "")
#INSTANCE# ck_n75_m20_o5_5.cbf.gz
#TIMELIMIT# 3600.0

Problem dimensions:
       variables |    3136
     constraints |    3135
   nonzeros in A |    5147

Cones summary:
Cone             | Count   | Min dim.  | Max dim. 
    Rotated S.O. |      20 |        77 |        77

Variable types:
      continuous |    3061
         integer |      75

Transforming data...               0.01s

Creating conic subproblem...       0.03s

Building MIP model...              0.01s

Solving conic relaxation...        0.04s
 - Relaxation status    =        Optimal
 - Relaxation bound     =  -28352.448255
Academic license - for non-commercial use only
Optimize a model with 3156 rows, 3135 columns and 5383 nonzeros
Variable types: 3060 continuous, 75 integer (0 binary)
Coefficient statistics:
  Matrix range     [1e-10, 5e+02]
  Objective range  [1e+01, 1e+03]
  Bounds range     [0e+00, 0e+00]
  RHS range        [1e+00, 9e+02]
Warning: Model contains large matrix coefficient range
         Consider reformulating model or setting NumericFocus parameter
         to avoid numerical issues.
Found heuristic solution: objective -1178.000000
Presolve removed 3135 rows and 3040 columns
Presolve time: 0.00s
Presolved: 21 rows, 95 columns, 330 nonzeros
Variable types: 20 continuous, 75 integer (75 binary)

Root relaxation: objective -2.835245e+04, 26 iterations, 0.00 seconds

    Nodes    |    Current Node    |     Objective Bounds      |     Work
 Expl Unexpl |  Obj  Depth IntInf | Incumbent    BestBd   Gap | It/Node Time

     0     0 -28352.448    0    1 -1178.0000 -28352.448  2307%     -    0s
     0     0 -28352.448    0    1 -1178.0000 -28352.448  2307%     -    0s
     0     2 -28352.448    0    1 -1178.0000 -28352.448  2307%     -    0s
H 1490  1253                    -23354.00000 -28352.448  21.4%   4.3    1s
H 1492  1193                    -24527.00000 -28352.448  15.6%   4.3    1s
H 2266  1486                    -24671.00000 -28352.448  14.9%   5.1    2s
H 2822  1624                    -24699.00000 -28340.660  14.7%   5.1    2s
 13614  7799 -25680.804   33   14 -24699.000 -27805.418  12.6%   5.4    5s
 36678 20719 -25135.440   34   14 -24699.000 -27320.082  10.6%   5.6   10s
 63485 33846 -25312.508   32   15 -24699.000 -27014.185  9.37%   5.8   15s
 87899 44678     cutoff   33      -24699.000 -26827.082  8.62%   5.8   20s
H88092 43886                    -24775.00000 -26826.899  8.28%   5.8   20s
 111771 52980 -25005.896   38    7 -24775.000 -26678.469  7.68%   5.9   25s
 129449 59289     cutoff   37      -24775.000 -26586.927  7.31%   6.0   30s
 153196 67062 -26026.756   28   15 -24775.000 -26482.852  6.89%   6.0   35s
H169090 70973                    -24807.00000 -26416.800  6.49%   6.0   38s
 176137 73002     cutoff   40      -24807.000 -26391.005  6.39%   6.0   40s
 199980 79244 -25489.433   36    9 -24807.000 -26304.347  6.04%   6.0   45s
 222367 84842     cutoff   27      -24807.000 -26230.021  5.74%   6.0   50s
 239291 88892     cutoff   37      -24807.000 -26179.454  5.53%   6.0   55s
 260437 93522 -24987.425   36    9 -24807.000 -26123.581  5.31%   6.0   60s
 284108 98381 -25436.321   34   14 -24807.000 -26066.766  5.08%   6.0   65s
 305731 102556     cutoff   41      -24807.000 -26017.946  4.88%   6.0   70s
H315969 103168                    -24835.00000 -25996.531  4.68%   6.0   72s
 325674 104795 -25118.672   37   10 -24835.000 -25976.521  4.60%   6.0   75s
 345323 107905 -25087.155   37   10 -24835.000 -25935.926  4.43%   6.0   80s
 362053 110195 -25577.155   34   14 -24835.000 -25904.340  4.31%   5.9   85s
 384370 113057 -25368.996   29   19 -24835.000 -25864.951  4.15%   5.9   90s
 406107 115544     cutoff   40      -24835.000 -25829.266  4.00%   5.9   95s
 426912 117669 -25022.650   35   11 -24835.000 -25796.516  3.87%   5.9  100s
 448547 119647 -25079.713   27   10 -24835.000 -25762.849  3.74%   5.9  105s
 470598 121300     cutoff   38      -24835.000 -25732.839  3.62%   5.9  110s
 485250 122321     cutoff   37      -24835.000 -25711.541  3.53%   5.8  115s
H485600 122177                    -24838.00000 -25711.541  3.52%   5.8  115s
 505194 123180     cutoff   35      -24838.000 -25684.499  3.41%   5.8  120s
 527090 124025 -24866.604   28   13 -24838.000 -25656.836  3.30%   5.8  125s
 548940 124392 -24910.597   33   12 -24838.000 -25629.469  3.19%   5.8  130s
 571484 124782     cutoff   33      -24838.000 -25602.994  3.08%   5.8  135s
 591436 124492 -25191.043   33   14 -24838.000 -25578.688  2.98%   5.8  140s
 607458 124213 -25269.989   35   10 -24838.000 -25559.829  2.91%   5.8  145s
 627441 123651 -25086.781   29   14 -24838.000 -25537.117  2.81%   5.7  150s
 646866 122955 -25353.913   29   14 -24838.000 -25515.809  2.73%   5.7  155s
 667298 121849 -25448.809   42    9 -24838.000 -25493.572  2.64%   5.7  160s
 684624 120700 -25234.727   38    8 -24838.000 -25475.644  2.57%   5.7  165s
 704945 119218 -24873.322   33   14 -24838.000 -25454.960  2.48%   5.7  170s
 724175 117564 -25205.112   36   13 -24838.000 -25434.808  2.40%   5.7  176s
 738839 115768 -25182.259   33   15 -24838.000 -25419.605  2.34%   5.7  180s
 757392 113609 -25044.328   32   13 -24838.000 -25400.979  2.27%   5.6  185s
 776678 110969 -25268.443   38   12 -24838.000 -25381.089  2.19%   5.6  190s
 792408 108595     cutoff   37      -24838.000 -25364.767  2.12%   5.6  195s
 806309 106390 -25227.290   36   12 -24838.000 -25350.920  2.07%   5.6  200s
 824506 103267 -25204.638   33   12 -24838.000 -25332.220  1.99%   5.6  205s
 842891 99684     cutoff   35      -24838.000 -25312.633  1.91%   5.6  210s
 861417 95709 -24965.959   38    7 -24838.000 -25292.652  1.83%   5.6  215s
 879866 91393 -25204.779   37   11 -24838.000 -25272.822  1.75%   5.6  220s
 897191 86911 -25250.765   37   10 -24838.000 -25253.087  1.67%   5.5  225s
 910377 83515 -25235.954   34   10 -24838.000 -25238.275  1.61%   5.5  230s
 927066 78340     cutoff   41      -24838.000 -25217.679  1.53%   5.5  235s
 944874 72472     cutoff   38      -24838.000 -25194.284  1.43%   5.5  240s
 962803 65999     cutoff   37      -24838.000 -25169.532  1.33%   5.5  245s
 980520 58933     cutoff   47      -24838.000 -25142.771  1.23%   5.5  250s
 995884 52295 -24914.317   32    9 -24838.000 -25117.908  1.13%   5.5  255s
 1013215 43935 -25082.787   36    9 -24838.000 -25085.928  1.00%   5.5  260s
 1029901 34896 -24996.361   39    7 -24838.000 -25049.209  0.85%   5.4  265s
 1042804 26784     cutoff   37      -24838.000 -25014.697  0.71%   5.4  270s
 1060453 13868     cutoff   34      -24838.000 -24946.967  0.44%   5.4  275s
 1073908  1852 -24858.554   29    7 -24838.000 -24858.730  0.08%   5.3  280s

Cutting planes:
  Gomory: 1
  Cover: 6
  Flow cover: 1
  Lazy constraints: 599

Explored 1075945 nodes (5744840 simplex iterations) in 280.43 seconds
Thread count was 8 (of 16 available processors)

Solution count 9: -24838 -24835 -24807 ... -1178

Optimal solution found (tolerance 1.00e-05)
Best objective -2.483800000000e+04, best bound -2.483800000000e+04, gap 0.0000%

Starting MIP-solver-driven algorithm

MIP-solver-driven algorithm summary:
 - Status               =        Optimal
 - Best feasible        =  -2.483800e+04
 - Best bound           =  -2.483800e+04
 - Relative opt. gap    =      0.000e+00
 - Total time (s)       =       2.81e+02

Timers (s):
 - Setup                =   4.30e-02
 -- Transform data      =   9.54e-03
 -- Create conic data   =   2.79e-02
 -- Create MIP data     =   5.54e-03
 - Algorithm            =   2.80e+02
 -- Solve relaxation    =   4.43e-02
 -- Get relaxation cuts =   2.17e-04
 -- MIP solver driving  =   2.80e+02
 -- Solve subproblems   =   8.59e+00
 -- Get subproblem cuts =   1.77e-01
 -- Get separation cuts =   0.00e+00

Counters:
 - Lazy callbacks       =   717
 -- Integer repeats     =     2
 -- Conic subproblems   =   716
 --- Infeasible         =   706
 --- Optimal            =    10
 --- Suboptimal         =     0
 --- UserLimit          =     0
 --- ConicFailure       =     0
 --- Other status       =     0
 -- Feasible solutions  =    10
 --- From subproblems   =    10
 --- In lazy callback   =     0
 - Heuristic callbacks  = 680093
 -- Solutions passed    =    10

Solution returned by conic solver

Distance to feasibility (negative indicates strict feasibility):
Cone             | Variable  | Constraint
          Linear |  0.00e+00 |  6.21e-09
    Rotated S.O. | -8.28e-09 |        NA

Distance to integrality of integer/binary variables:
         integer |  0.00e+00

#STATUS# Optimal
#OBJVAL# 24838.0
#OBJBOUND# 24838.0
#NODECOUNT# 1075945
#TIMESOLVER# 280.52423310279846
#TIMEALL# 280.5716218948364
#SOLUTION# [-0.0,-0.0,1.0,1.0,1.0,-0.0,1.0,1.0,-0.0,-0.0,1.0,-0.0,-0.0,-0.0,-0.0,1.0,1.0,1.0,-0.0,-0.0,0.0,1.0,-0.0,1.0,1.0,-0.0,1.0,0.0,1.0,1.0,1.0,-0.0,1.0,-0.0,1.0,1.0,-0.0,1.0,-0.0,1.0,-0.0,1.0,-0.0,-0.0,1.0,1.0,1.0,-0.0,1.0,1.0,-0.0,-0.0,-0.0,-0.0,1.0,1.0,1.0,-0.0,1.0,-0.0,-0.0,1.0,-0.0,1.0,1.0,1.0,1.0,-0.0,-0.0,-0.0,1.0,1.0,-0.0,-0.0,1.0,0.0,0.0,0.0,12.0,0.0,0.0,0.0,136.0,0.0,0.0,0.0,0.0,0.0,0.0,0.0,0.0,0.0,0.0,0.0,0.0,0.0,0.0,0.0,0.0,0.0,175.0,0.0,0.0,0.0,0.0,0.0,0.0,0.0,2.0,0.0,0.0,0.0,0.0,212.0,0.0,258.0,0.0,0.0,0.0,0.0,0.0,0.0,0.0,0.0,196.0,0.0,0.0,0.0,0.0,0.0,0.0,0.0,0.0,0.0,0.0,0.0,0.0,7.0,0.0,0.0,0.0,0.0,0.0,0.0,0.0,0.0,0.0,0.0,0.0,0.0,100.0,479.3996337460202,0.0,0.0,103.0,0.0,0.0,0.0,66.0,0.0,0.0,0.0,0.0,0.0,0.0,0.0,0.0,0.0,0.0,0.0,0.0,0.0,0.0,0.0,0.0,0.0,0.0,0.0,0.0,0.0,0.0,0.0,0.0,0.0,0.0,0.0,0.0,0.0,0.0,0.0,0.0,0.0,0.0,0.0,0.0,0.0,63.0,0.0,0.0,0.0,0.0,0.0,0.0,0.0,0.0,0.0,0.0,0.0,0.0,0.0,0.0,0.0,0.0,0.0,0.0,0.0,0.0,0.0,0.0,0.0,0.0,0.0,0.0,0.0,0.0,0.0,0.0,218.02431575199387,0.0,0.0,0.0,0.0,0.0,0.0,0.0,0.0,0.0,0.0,0.0,0.0,0.0,0.0,0.0,0.0,0.0,0.0,0.0,0.0,0.0,107.0,0.0,0.0,0.0,0.0,0.0,0.0,0.0,0.0,0.0,0.0,0.0,0.0,0.0,0.0,0.0,0.0,0.0,0.0,0.0,0.0,0.0,0.0,0.0,0.0,0.0,0.0,0.0,0.0,0.0,0.0,0.0,0.0,0.0,0.0,0.0,0.0,0.0,0.0,0.0,0.0,0.0,166.0,0.0,0.0,0.0,0.0,0.0,0.0,10.0,0.0,0.0,0.0,0.0,209.80255499680763,0.0,0.0,0.0,0.0,0.0,0.0,0.0,4.0,0.0,0.0,0.0,0.0,0.0,0.0,0.0,0.0,0.0,0.0,0.0,0.0,0.0,0.0,0.0,0.0,0.0,0.0,0.0,0.0,0.0,0.0,0.0,0.0,0.0,0.0,0.0,0.0,0.0,0.0,0.0,0.0,0.0,0.0,0.0,0.0,0.0,0.0,0.0,0.0,0.0,44.0,0.0,0.0,0.0,0.0,122.0,155.0,0.0,0.0,0.0,0.0,0.0,0.0,0.0,76.0,0.0,0.0,0.0,0.0,0.0,0.0,0.0,0.0,0.0,0.0,0.0,274.5547051476212,0.0,0.0,0.0,0.0,7.0,0.0,0.0,0.0,0.0,0.0,0.0,0.0,0.0,0.0,0.0,0.0,0.0,0.0,0.0,0.0,0.0,0.0,0.0,0.0,0.0,0.0,0.0,0.0,0.0,0.0,44.0,0.0,0.0,0.0,0.0,0.0,0.0,0.0,0.0,0.0,0.0,0.0,0.0,0.0,0.0,0.0,0.0,0.0,0.0,221.0,0.0,0.0,0.0,0.0,0.0,0.0,0.0,0.0,281.0,0.0,0.0,0.0,0.0,0.0,134.0,0.0,0.0,0.0,0.0,0.0,0.0,0.0,0.0,0.0,0.0,426.78563179331655,0.0,0.0,0.0,0.0,133.0,0.0,0.0,194.0,0.0,0.0,0.0,0.0,0.0,0.0,0.0,47.0,0.0,0.0,0.0,0.0,0.0,0.0,0.0,0.0,0.0,0.0,0.0,0.0,0.0,0.0,0.0,0.0,259.0,0.0,88.0,83.0,0.0,127.0,0.0,0.0,0.0,0.0,0.0,0.0,0.0,12.0,0.0,0.0,0.0,3.0,0.0,0.0,0.0,0.0,0.0,0.0,0.0,0.0,0.0,0.0,0.0,0.0,0.0,0.0,158.0,0.0,0.0,0.0,0.0,0.0,0.0,0.0,0.0,0.0,0.0,430.518404393721,0.0,0.0,0.0,0.0,0.0,0.0,0.0,282.0,0.0,0.0,5.0,0.0,0.0,0.0,0.0,0.0,60.0,0.0,0.0,0.0,0.0,0.0,0.0,0.0,0.0,0.0,0.0,0.0,0.0,0.0,0.0,0.0,0.0,0.0,0.0,0.0,0.0,0.0,0.0,0.0,0.0,0.0,0.0,0.0,0.0,0.0,0.0,0.0,60.0,0.0,0.0,0.0,0.0,0.0,0.0,0.0,0.0,0.0,0.0,0.0,0.0,0.0,0.0,0.0,0.0,0.0,0.0,0.0,0.0,0.0,0.0,0.0,0.0,0.0,0.0,304.112136047109,0.0,0.0,0.0,0.0,2.0,0.0,0.0,0.0,0.0,0.0,0.0,0.0,0.0,0.0,0.0,75.0,0.0,0.0,0.0,0.0,0.0,0.0,0.0,0.0,0.0,0.0,0.0,0.0,0.0,0.0,0.0,0.0,0.0,0.0,0.0,0.0,0.0,0.0,0.0,0.0,0.0,0.0,0.0,0.0,0.0,0.0,0.0,0.0,85.0,0.0,0.0,0.0,0.0,0.0,0.0,0.0,0.0,0.0,87.0,0.0,0.0,0.0,0.0,0.0,0.0,0.0,0.0,0.0,0.0,0.0,0.0,0.0,0.0,0.0,0.0,154.67831765529846,0.0,0.0,0.0,0.0,0.0,0.0,0.0,0.0,0.0,0.0,0.0,0.0,0.0,0.0,0.0,0.0,0.0,1.0,0.0,0.0,0.0,2.0,0.0,0.0,0.0,0.0,0.0,0.0,0.0,0.0,0.0,0.0,0.0,0.0,0.0,0.0,0.0,0.0,0.0,0.0,0.0,0.0,0.0,0.0,0.0,246.0,0.0,0.0,0.0,161.0,0.0,0.0,0.0,0.0,0.0,0.0,6.0,0.0,0.0,0.0,0.0,0.0,0.0,0.0,0.0,0.0,0.0,0.0,0.0,0.0,0.0,0.0,0.0,0.0,0.0,334.07775712852265,0.0,0.0,0.0,0.0,0.0,0.0,0.0,0.0,0.0,0.0,0.0,0.0,0.0,0.0,0.0,0.0,0.0,0.0,0.0,0.0,0.0,0.0,0.0,0.0,0.0,0.0,165.0,0.0,0.0,0.0,0.0,0.0,0.0,0.0,0.0,0.0,0.0,0.0,0.0,0.0,0.0,0.0,0.0,0.0,0.0,0.0,0.0,0.0,0.0,0.0,0.0,0.0,0.0,0.0,0.0,0.0,0.0,0.0,0.0,0.0,0.0,0.0,0.0,0.0,0.0,0.0,0.0,0.0,0.0,0.0,0.0,0.0,0.0,0.0,0.0,165.0000000062077,0.0,0.0,0.0,0.0,0.0,0.0,0.0,0.0,0.0,0.0,0.0,0.0,0.0,0.0,0.0,0.0,0.0,0.0,0.0,0.0,0.0,0.0,0.0,0.0,0.0,0.0,0.0,0.0,0.0,0.0,0.0,0.0,0.0,0.0,0.0,0.0,0.0,0.0,0.0,0.0,0.0,0.0,0.0,0.0,371.0,0.0,0.0,0.0,0.0,0.0,0.0,0.0,0.0,0.0,0.0,0.0,0.0,0.0,0.0,0.0,0.0,0.0,0.0,0.0,0.0,0.0,183.0,0.0,0.0,0.0,0.0,0.0,0.0,0.0,0.0,437.3704123813157,0.0,0.0,0.0,0.0,0.0,0.0,0.0,0.0,0.0,0.0,0.0,0.0,0.0,0.0,0.0,0.0,0.0,0.0,0.0,0.0,0.0,0.0,0.0,0.0,0.0,0.0,0.0,0.0,0.0,0.0,0.0,0.0,65.0,0.0,0.0,0.0,0.0,0.0,0.0,0.0,0.0,0.0,0.0,0.0,0.0,0.0,0.0,0.0,0.0,0.0,0.0,0.0,0.0,0.0,0.0,0.0,0.0,0.0,0.0,0.0,0.0,0.0,0.0,0.0,0.0,0.0,255.0,0.0,0.0,0.0,0.0,0.0,0.0,0.0,162.0,331.14681877780305,0.0,0.0,0.0,0.0,0.0,0.0,0.0,0.0,0.0,0.0,0.0,0.0,0.0,0.0,0.0,0.0,0.0,0.0,0.0,0.0,0.0,0.0,0.0,0.0,0.0,0.0,0.0,0.0,0.0,0.0,0.0,0.0,0.0,0.0,0.0,0.0,0.0,21.0,0.0,126.0,0.0,0.0,0.0,0.0,0.0,0.0,0.0,0.0,0.0,0.0,0.0,0.0,0.0,0.0,0.0,0.0,0.0,0.0,0.0,0.0,0.0,0.0,0.0,4.0,0.0,0.0,0.0,0.0,0.0,0.0,0.0,0.0,0.0,0.0,0.0,182.3462698507182,0.0,0.0,0.0,0.0,0.0,0.0,0.0,271.0,0.0,0.0,0.0,0.0,0.0,0.0,0.0,80.0,0.0,0.0,0.0,0.0,0.0,0.0,0.0,0.0,0.0,0.0,0.0,0.0,0.0,0.0,0.0,0.0,13.0,0.0,0.0,0.0,0.0,0.0,0.0,0.0,0.0,0.0,0.0,0.0,0.0,17.0,0.0,0.0,11.0,0.0,0.0,0.0,0.0,0.0,0.0,0.0,0.0,0.0,0.0,0.0,0.0,0.0,0.0,0.0,0.0,0.0,0.0,0.0,0.0,0.0,0.0,0.0,0.0,0.0,0.0,307.014845979087,0.0,0.0,166.0,0.0,0.0,0.0,0.0,0.0,0.0,0.0,0.0,0.0,0.0,0.0,0.0,0.0,0.0,0.0,0.0,0.0,0.0,0.0,0.0,0.0,0.0,0.0,20.0,0.0,164.0,0.0,0.0,0.0,0.0,0.0,87.0,0.0,0.0,0.0,0.0,0.0,0.0,0.0,0.0,0.0,0.0,52.0,0.0,0.0,0.0,0.0,0.0,0.0,0.0,0.0,0.0,0.0,0.0,0.0,0.0,0.0,0.0,0.0,0.0,0.0,0.0,0.0,0.0,0.0,0.0,0.0,0.0,0.0,0.0,0.0,0.0,282.73061414994686,0.0,0.0,0.0,0.0,0.0,0.0,0.0,0.0,0.0,0.0,0.0,0.0,0.0,0.0,0.0,0.0,0.0,0.0,0.0,0.0,0.0,0.0,0.0,0.0,0.0,0.0,0.0,0.0,0.0,0.0,45.0,0.0,0.0,0.0,0.0,0.0,0.0,114.0,0.0,0.0,0.0,0.0,0.0,0.0,35.0,0.0,0.0,0.0,0.0,0.0,0.0,0.0,0.0,0.0,0.0,0.0,0.0,0.0,143.0,0.0,0.0,87.0,0.0,0.0,0.0,12.0,0.0,0.0,0.0,0.0,0.0,0.0,0.0,0.0,0.0,213.1819153546009,0.0,0.0,0.0,215.0,0.0,0.0,0.0,0.0,0.0,0.0,0.0,0.0,0.0,0.0,0.0,1.0,0.0,0.0,0.0,0.0,0.0,0.0,0.0,0.0,0.0,0.0,0.0,0.0,0.0,0.0,4.0,0.0,87.0,0.0,0.0,0.0,0.0,0.0,0.0,0.0,0.0,83.0,0.0,0.0,40.0,0.0,0.0,0.0,101.0,0.0,0.0,0.0,0.0,0.0,0.0,0.0,0.0,0.0,7.0,0.0,0.0,0.0,0.0,0.0,0.0,0.0,0.0,0.0,0.0,0.0,0.0,0.0,0.0,0.0,0.0,276.8656132036671,0.0,0.0,1.0,0.0,0.0,0.0,367.0,0.0,0.0,0.0,0.0,0.0,0.0,0.0,0.0,0.0,0.0,0.0,0.0,0.0,0.0,0.0,0.0,0.0,56.0,0.0,0.0,0.0,0.0,0.0,0.0,0.0,0.0,0.0,0.0,0.0,0.0,139.0,0.0,0.0,0.0,0.0,0.0,0.0,0.0,0.0,0.0,0.0,0.0,0.0,0.0,0.0,0.0,0.0,0.0,0.0,0.0,0.0,0.0,0.0,0.0,0.0,0.0,0.0,0.0,0.0,0.0,0.0,0.0,0.0,0.0,0.0,0.0,0.0,0.0,402.3013905052093,0.0,0.0,0.0,0.0,0.0,0.0,0.0,0.0,0.0,0.0,0.0,0.0,0.0,0.0,0.0,0.0,0.0,143.0,0.0,0.0,0.0,0.0,0.0,0.0,0.0,0.0,0.0,0.0,0.0,0.0,0.0,0.0,0.0,0.0,0.0,0.0,0.0,0.0,0.0,0.0,0.0,14.0,0.0,0.0,0.0,0.0,0.0,0.0,0.0,80.0,0.0,0.0,0.0,0.0,0.0,63.0,0.0,0.0,0.0,0.0,0.0,0.0,0.0,0.0,0.0,0.0,0.0,0.0,0.0,0.0,0.0,152.0,0.0,0.0,0.0,269.5121440074842,0.0,0.0,0.0,0.0,0.0,0.0,0.0,0.0,0.0,0.0,0.0,0.0,0.0,0.0,0.0,0.0,0.0,0.0,0.0,0.0,0.0,0.0,0.0,0.0,0.0,0.0,0.0,0.0,0.0,23.0,0.0,0.0,0.0,0.0,0.0,0.0,0.0,0.0,0.0,0.0,0.0,208.0,0.0,0.0,0.0,0.0,0.0,0.0,0.0,0.0,0.0,0.0,0.0,0.0,0.0,0.0,0.0,0.0,0.0,0.0,0.0,130.0,0.0,0.0,0.0,0.0,114.0,0.0,0.0,0.0,103.0,0.0,0.0,0.0,0.0,334.563056543565,677.9734638403162,338.98673192015815,0.0,0.0,16.97056274847714,0.0,0.0,0.0,192.33304448274092,0.0,0.0,0.0,0.0,0.0,0.0,0.0,0.0,0.0,0.0,0.0,0.0,0.0,0.0,0.0,0.0,0.0,247.48737341529161,0.0,0.0,0.0,0.0,0.0,0.0,0.0,2.82842712474619,0.0,0.0,0.0,0.0,299.8132752230961,0.0,364.8670990922585,0.0,0.0,0.0,0.0,0.0,0.0,0.0,0.0,277.1858582251266,0.0,0.0,0.0,0.0,0.0,0.0,0.0,0.0,0.0,0.0,0.0,0.0,9.899494936611664,0.0,0.0,0.0,0.0,0.0,0.0,0.0,0.0,0.0,0.0,0.0,0.0,141.42135623730948,308.3329442635837,154.1664721317919,0.0,0.0,145.66399692442877,0.0,0.0,0.0,93.33809511662426,0.0,0.0,0.0,0.0,0.0,0.0,0.0,0.0,0.0,0.0,0.0,0.0,0.0,0.0,0.0,0.0,0.0,0.0,0.0,0.0,0.0,0.0,0.0,0.0,0.0,0.0,0.0,0.0,0.0,0.0,0.0,0.0,0.0,0.0,0.0,0.0,0.0,89.09545442950498,0.0,0.0,0.0,0.0,0.0,0.0,0.0,0.0,0.0,0.0,0.0,0.0,0.0,0.0,0.0,0.0,0.0,0.0,0.0,0.0,0.0,0.0,0.0,0.0,0.0,0.0,0.0,0.0,0.0,0.0,296.7056186970125,148.35280934850627,0.0,0.0,0.0,0.0,0.0,0.0,0.0,0.0,0.0,0.0,0.0,0.0,0.0,0.0,0.0,0.0,0.0,0.0,0.0,0.0,0.0,151.32085117392117,0.0,0.0,0.0,0.0,0.0,0.0,0.0,0.0,0.0,0.0,0.0,0.0,0.0,0.0,0.0,0.0,0.0,0.0,0.0,0.0,0.0,0.0,0.0,0.0,0.0,0.0,0.0,0.0,0.0,0.0,0.0,0.0,0.0,0.0,0.0,0.0,0.0,0.0,0.0,0.0,0.0,234.75945135393377,0.0,0.0,0.0,0.0,0.0,0.0,14.14213562373095,0.0,0.0,0.0,0.0,388.278987633112,194.13949381655607,0.0,0.0,0.0,0.0,0.0,0.0,0.0,5.65685424949238,0.0,0.0,0.0,0.0,0.0,0.0,0.0,0.0,0.0,0.0,0.0,0.0,0.0,0.0,0.0,0.0,0.0,0.0,0.0,0.0,0.0,0.0,0.0,0.0,0.0,0.0,0.0,0.0,0.0,0.0,0.0,0.0,0.0,0.0,0.0,0.0,0.0,0.0,0.0,0.0,0.0,62.22539674441617,0.0,0.0,0.0,0.0,172.53405460951757,219.2031021678297,0.0,0.0,0.0,0.0,0.0,0.0,0.0,107.48023074035521,0.0,0.0,0.0,0.0,0.0,0.0,0.0,0.0,0.0,0.0,0.0,603.5660287080782,301.78301435403915,0.0,0.0,0.0,0.0,9.899494936611664,0.0,0.0,0.0,0.0,0.0,0.0,0.0,0.0,0.0,0.0,0.0,0.0,0.0,0.0,0.0,0.0,0.0,0.0,0.0,0.0,0.0,0.0,0.0,0.0,0.0,62.22539674441617,0.0,0.0,0.0,0.0,0.0,0.0,0.0,0.0,0.0,0.0,0.0,0.0,0.0,0.0,0.0,0.0,0.0,0.0,312.541197284454,0.0,0.0,0.0,0.0,0.0,0.0,0.0,0.0,397.3940110268397,0.0,0.0,0.0,0.0,0.0,189.50461735799473,0.0,0.0,0.0,0.0,0.0,0.0,0.0,0.0,0.0,0.0,608.8449663448249,304.4224831724125,0.0,0.0,0.0,0.0,188.09040379562163,0.0,0.0,274.35743110038044,0.0,0.0,0.0,0.0,0.0,0.0,0.0,66.46803743153546,0.0,0.0,0.0,0.0,0.0,0.0,0.0,0.0,0.0,0.0,0.0,0.0,0.0,0.0,0.0,0.0,366.28131265463156,0.0,124.45079348883235,117.37972567696688,0.0,179.60512242138304,0.0,0.0,0.0,0.0,0.0,0.0,0.0,16.97056274847714,0.0,0.0,0.0,4.242640687119285,0.0,0.0,0.0,0.0,0.0,0.0,0.0,0.0,0.0,0.0,0.0,0.0,0.0,0.0,223.445742854949,0.0,0.0,0.0,0.0,0.0,0.0,0.0,0.0,0.0,0.0,430.0795072800733,215.0397536400367,0.0,0.0,0.0,0.0,0.0,0.0,0.0,398.8082245892128,0.0,0.0,7.071067811865475,0.0,0.0,0.0,0.0,0.0,84.85281374238569,0.0,0.0,0.0,0.0,0.0,0.0,0.0,0.0,0.0,0.0,0.0,0.0,0.0,0.0,0.0,0.0,0.0,0.0,0.0,0.0,0.0,0.0,0.0,0.0,0.0,0.0,0.0,0.0,0.0,0.0,0.0,84.85281374238569,0.0,0.0,0.0,0.0,0.0,0.0,0.0,0.0,0.0,0.0,0.0,0.0,0.0,0.0,0.0,0.0,0.0,0.0,0.0,0.0,0.0,0.0,0.0,0.0,0.0,0.0,218.7481746331768,109.37408731658843,0.0,0.0,0.0,0.0,2.82842712474619,0.0,0.0,0.0,0.0,0.0,0.0,0.0,0.0,0.0,0.0,106.06601717798212,0.0,0.0,0.0,0.0,0.0,0.0,0.0,0.0,0.0,0.0,0.0,0.0,0.0,0.0,0.0,0.0,0.0,0.0,0.0,0.0,0.0,0.0,0.0,0.0,0.0,0.0,0.0,0.0,0.0,0.0,0.0,0.0,120.20815280171307,0.0,0.0,0.0,0.0,0.0,0.0,0.0,0.0,0.0,123.03657992645925,0.0,0.0,0.0,0.0,0.0,0.0,0.0,0.0,0.0,0.0,0.0,0.0,0.0,0.0,0.0,0.0,472.4572950183416,236.22864750917086,0.0,0.0,0.0,0.0,0.0,0.0,0.0,0.0,0.0,0.0,0.0,0.0,0.0,0.0,0.0,0.0,0.0,1.414213562373095,0.0,0.0,0.0,2.82842712474619,0.0,0.0,0.0,0.0,0.0,0.0,0.0,0.0,0.0,0.0,0.0,0.0,0.0,0.0,0.0,0.0,0.0,0.0,0.0,0.0,0.0,0.0,0.0,347.89653634378135,0.0,0.0,0.0,227.6883835420683,0.0,0.0,0.0,0.0,0.0,0.0,8.48528137423857,0.0,0.0,0.0,0.0,0.0,0.0,0.0,0.0,0.0,0.0,0.0,0.0,0.0,0.0,0.0,0.0,0.0,0.0,233.34523780033967,116.67261890016987,0.0,0.0,0.0,0.0,0.0,0.0,0.0,0.0,0.0,0.0,0.0,0.0,0.0,0.0,0.0,0.0,0.0,0.0,0.0,0.0,0.0,0.0,0.0,0.0,0.0,0.0,233.34523779156066,0.0,0.0,0.0,0.0,0.0,0.0,0.0,0.0,0.0,0.0,0.0,0.0,0.0,0.0,0.0,0.0,0.0,0.0,0.0,0.0,0.0,0.0,0.0,0.0,0.0,0.0,0.0,0.0,0.0,0.0,0.0,0.0,0.0,0.0,0.0,0.0,0.0,0.0,0.0,0.0,0.0,0.0,0.0,0.0,0.0,0.0,0.0,0.0,618.53516897037,309.26758448518507,0.0,0.0,0.0,0.0,0.0,0.0,0.0,0.0,0.0,0.0,0.0,0.0,0.0,0.0,0.0,0.0,0.0,0.0,0.0,0.0,0.0,0.0,0.0,0.0,0.0,0.0,0.0,0.0,0.0,0.0,0.0,0.0,0.0,0.0,0.0,0.0,0.0,0.0,0.0,0.0,0.0,0.0,0.0,0.0,524.6732316404182,0.0,0.0,0.0,0.0,0.0,0.0,0.0,0.0,0.0,0.0,0.0,0.0,0.0,0.0,0.0,0.0,0.0,0.0,0.0,0.0,0.0,258.8010819142764,0.0,0.0,0.0,0.0,0.0,0.0,0.0,0.0,468.31232225227456,234.15616112613733,0.0,0.0,0.0,0.0,0.0,0.0,0.0,0.0,0.0,0.0,0.0,0.0,0.0,0.0,0.0,0.0,0.0,0.0,0.0,0.0,0.0,0.0,0.0,0.0,0.0,0.0,0.0,0.0,0.0,0.0,0.0,0.0,91.92388155425117,0.0,0.0,0.0,0.0,0.0,0.0,0.0,0.0,0.0,0.0,0.0,0.0,0.0,0.0,0.0,0.0,0.0,0.0,0.0,0.0,0.0,0.0,0.0,0.0,0.0,0.0,0.0,0.0,0.0,0.0,0.0,0.0,0.0,360.6244584051392,0.0,0.0,0.0,0.0,0.0,0.0,0.0,229.10259710444137,257.87656787102986,128.93828393551496,0.0,0.0,0.0,0.0,0.0,0.0,0.0,0.0,0.0,0.0,0.0,0.0,0.0,0.0,0.0,0.0,0.0,0.0,0.0,0.0,0.0,0.0,0.0,0.0,0.0,0.0,0.0,0.0,0.0,0.0,0.0,0.0,0.0,0.0,0.0,0.0,0.0,29.698484809834994,0.0,178.19090885900997,0.0,0.0,0.0,0.0,0.0,0.0,0.0,0.0,0.0,0.0,0.0,0.0,0.0,0.0,0.0,0.0,0.0,0.0,0.0,0.0,0.0,0.0,0.0,5.65685424949238,0.0,0.0,0.0,0.0,0.0,0.0,0.0,0.0,0.0,0.0,0.0,434.1845590335117,217.0922795167559,0.0,0.0,0.0,0.0,0.0,0.0,0.0,383.2518754031087,0.0,0.0,0.0,0.0,0.0,0.0,0.0,113.1370849898476,0.0,0.0,0.0,0.0,0.0,0.0,0.0,0.0,0.0,0.0,0.0,0.0,0.0,0.0,0.0,0.0,18.384776310850235,0.0,0.0,0.0,0.0,0.0,0.0,0.0,0.0,0.0,0.0,0.0,0.0,24.041630560342615,0.0,0.0,15.556349186104043,0.0,0.0,0.0,0.0,0.0,0.0,0.0,0.0,0.0,0.0,0.0,0.0,0.0,0.0,0.0,0.0,0.0,0.0,0.0,0.0,0.0,0.0,0.0,0.0,0.0,0.0,399.8414690289293,199.9207345144647,0.0,0.0,234.75945135393377,0.0,0.0,0.0,0.0,0.0,0.0,0.0,0.0,0.0,0.0,0.0,0.0,0.0,0.0,0.0,0.0,0.0,0.0,0.0,0.0,0.0,0.0,0.0,28.2842712474619,0.0,231.93102422918756,0.0,0.0,0.0,0.0,0.0,123.03657992645925,0.0,0.0,0.0,0.0,0.0,0.0,0.0,0.0,0.0,0.0,73.53910524340094,0.0,0.0,0.0,0.0,0.0,0.0,0.0,0.0,0.0,0.0,0.0,0.0,0.0,0.0,0.0,0.0,0.0,0.0,0.0,0.0,0.0,0.0,0.0,0.0,0.0,0.0,0.0,0.0,0.0,301.4847559471497,150.7423779735749,0.0,0.0,0.0,0.0,0.0,0.0,0.0,0.0,0.0,0.0,0.0,0.0,0.0,0.0,0.0,0.0,0.0,0.0,0.0,0.0,0.0,0.0,0.0,0.0,0.0,0.0,0.0,0.0,0.0,0.0,63.63961030678927,0.0,0.0,0.0,0.0,0.0,0.0,161.22034611053283,0.0,0.0,0.0,0.0,0.0,0.0,49.49747468305832,0.0,0.0,0.0,0.0,0.0,0.0,0.0,0.0,0.0,0.0,0.0,0.0,0.0,202.23253941935258,0.0,0.0,123.03657992645925,0.0,0.0,0.0,16.97056274847714,0.0,0.0,0.0,0.0,0.0,0.0,0.0,0.0,0.0,391.5471051473695,195.7735525736848,0.0,0.0,0.0,304.0559159102154,0.0,0.0,0.0,0.0,0.0,0.0,0.0,0.0,0.0,0.0,0.0,1.414213562373095,0.0,0.0,0.0,0.0,0.0,0.0,0.0,0.0,0.0,0.0,0.0,0.0,0.0,0.0,5.65685424949238,0.0,123.03657992645925,0.0,0.0,0.0,0.0,0.0,0.0,0.0,0.0,117.37972567696688,0.0,0.0,56.5685424949238,0.0,0.0,0.0,142.8355697996826,0.0,0.0,0.0,0.0,0.0,0.0,0.0,0.0,0.0,9.899494936611664,0.0,0.0,0.0,0.0,0.0,0.0,0.0,0.0,0.0,0.0,0.0,0.0,0.0,0.0,0.0,0.0,568.9400826140217,284.4700413070109,0.0,0.0,1.414213562373095,0.0,0.0,0.0,519.0163773909259,0.0,0.0,0.0,0.0,0.0,0.0,0.0,0.0,0.0,0.0,0.0,0.0,0.0,0.0,0.0,0.0,0.0,79.19595949289331,0.0,0.0,0.0,0.0,0.0,0.0,0.0,0.0,0.0,0.0,0.0,0.0,196.5756851698602,0.0,0.0,0.0,0.0,0.0,0.0,0.0,0.0,0.0,0.0,0.0,0.0,0.0,0.0,0.0,0.0,0.0,0.0,0.0,0.0,0.0,0.0,0.0,0.0,0.0,0.0,0.0,0.0,0.0,0.0,0.0,0.0,0.0,0.0,0.0,0.0,0.0,381.1477292796348,190.57386463981743,0.0,0.0,0.0,0.0,0.0,0.0,0.0,0.0,0.0,0.0,0.0,0.0,0.0,0.0,0.0,0.0,0.0,202.23253941935258,0.0,0.0,0.0,0.0,0.0,0.0,0.0,0.0,0.0,0.0,0.0,0.0,0.0,0.0,0.0,0.0,0.0,0.0,0.0,0.0,0.0,0.0,0.0,19.798989873223327,0.0,0.0,0.0,0.0,0.0,0.0,0.0,113.1370849898476,0.0,0.0,0.0,0.0,0.0,89.09545442950498,0.0,0.0,0.0,0.0,0.0,0.0,0.0,0.0,0.0,0.0,0.0,0.0,0.0,0.0,0.0,214.96046148071042,0.0,0.0,0.0,473.1436120329062,236.57180601645317,0.0,0.0,0.0,0.0,0.0,0.0,0.0,0.0,0.0,0.0,0.0,0.0,0.0,0.0,0.0,0.0,0.0,0.0,0.0,0.0,0.0,0.0,0.0,0.0,0.0,0.0,0.0,0.0,0.0,32.526911934581186,0.0,0.0,0.0,0.0,0.0,0.0,0.0,0.0,0.0,0.0,0.0,294.15642097360376,0.0,0.0,0.0,0.0,0.0,0.0,0.0,0.0,0.0,0.0,0.0,0.0,0.0,0.0,0.0,0.0,0.0,0.0,0.0,183.84776310850233,0.0,0.0,0.0,0.0,161.22034611053283,0.0,0.0,0.0,145.66399692442877,0.0,0.0,0.0,0.0]
